language ESSENCE' 1.0
letting values be [[2, 0, 7, 0, 0, 1, 0, 8, 9], [4, 5, 0, 0, 7, 6, 1, 3, 0], [0, 0, 3, 0, 4, 8, 6, 5, 7], [5, 1, 0, 0, 2, 3, 0, 7, 0], [0, 0, 0, 0, 8, 0, 5, 4, 6], [8, 0, 6, 0, 9, 0, 0, 1, 3], [0, 0, 0, 8, 3, 0, 7, 9, 5], [7, 3, 2, 5, 1, 0, 8, 0, 0], [9, 0, 5, 7, 6, 4, 3, 2, 0]]